(set-logic QF_S)
(declare-fun E () String)
(declare-fun A () String)
(declare-fun C () String)
(declare-fun D () String)
(assert (= (str.++  "dabedccdaabbcbdbdacbbaebcbabbedcbbccacdecaacceccdadaccccbcbdceccc" "")  (str.++  "dabe" E "bcbdceccc") ))
(assert (= (str.++  "eedbaeaba" D "beabdaecaaacbbecceceed")  (str.++  "eed" C "bcbabecbcabeabdaecaaacbbecceceed") ))
(assert (= (str.++  "ebb" C "ccbdeecddcaaeebd" D "accddaecaebbaddbebddceebcbe")  (str.++  "ebb" C "ccbdeecdd" A "bacabaccddaecaebbaddbebddceebcbe") ))
(assert (= (str.++  "adcbcbbaeacadaaeaeabdecebbdebeaededbeaaeebeaabdedaddbde" C "beabba")  (str.++  "adcbcbbaeacadaaeaeabdecebbdebeaededbeaaeebeaabdedaddbde" C "beabba") ))
(assert (= (str.++  "debceaaddbddbaaedccddccaeadecdeaacbbcabcebddcecbcddabadbdcededdad" "")  (str.++  "debceaaddbddbaaedccddccaeadecdeaacbbc" C "bddcecbcddabadbdcededdad") ))
(assert (= (str.++  "edcaceaabbcbabedacdbabceaaaeadcbeeeadacbaecbbacaecbaeddbbccdabbcd" "")  (str.++  "edcaceaabbcbabedacdb" C "aaaeadcbeeeadacbaecbbacaecbaeddbbccdabbcd") ))
(assert (= (str.++  "bcedaccddebbaaebedecaaebeadcbaecddabaaacdaaabbaaadbcb" C "ddaadcdc")  (str.++  "bcedaccddebbaaebedecaaebeadcbaecddabaaacdaaabbaaadbcbabceddaadcdc" "") ))
(assert (= (str.++  "ceabceabababdaddbcbebeebebcececdeeeeeeaedcdbeddeaddadebbdaccdacec" "")  (str.++  "ce" C "abababdaddbcbebeebebcececdeeeeeeaedcdbeddeaddadebbdaccdacec") ))
(assert (= (str.++  "aabbcbebbaeaaeddebbdcceadaccdadeebaeedddcbebbdeabcbbeceddacbdabce" "")  (str.++  "aabbcbebbaeaaeddebbdcceadaccdadeebaeedddcbebbdeabcbbeceddacbd" C) ))
(assert (= (str.++  "cebdbbbbdcacddeecccbbd" C "cacbccdbaebccaebaccebaebacbaeecccbacaee")  (str.++  "cebdbbbbdcacddeecccbbdabcecacbccdbaebccaebaccebaebacbaeecccbacaee" "") ))
(assert (= (str.++  "dddedbcaaddadcdeeeeabeabaebbccadc" C "badaccbaaecccdccccbeadbeebec")  (str.++  "dddedbcaaddadcdeeeeabeabaebbccadc" C "badaccbaaecccdccccbeadbeebec") ))
(assert (= (str.++  "abcccbbbadbbbeedabba" C "edecbceaedaecbaedecececcdeabebccccbacdcbb")  (str.++  "abcccbbbadbbbeedabbaabceedecbceaedaecbaedecececcdeabebccccbacdcbb" "") ))
(assert (= (str.++  "ccabcbcdeaeccbccaadedbcccecee" C "cbeebbaabdeadaedeaedaabacdcadbdc")  (str.++  "ccabcbcdeaeccbccaadedbccceceeabcecbeebbaabdeadaedeaedaabacdcadbdc" "") ))
(check-sat)
(get-model)
